c SAT Generator for power-law distributed variable frequencies
c -g u -v 20 -c 91 -k 3 -p 2.750000 -b 3.200000 -f /home/schmidt/Devel/ni-kop-sat/data/ensemble/ruf20-91/ruf20-91-88 -u 1 -U 1 -s 1547614714
p cnf 20 91
2 6 17 0
-10 -11 17 0
-7 15 -19 0
-3 13 -15 0
-4 8 14 0
-7 8 10 0
7 -9 -15 0
7 -14 -17 0
6 8 -12 0
2 -6 13 0
-6 -8 -11 0
9 -12 18 0
7 13 -15 0
-3 4 -12 0
2 12 -13 0
-3 -4 -20 0
-4 -5 18 0
-2 -4 -18 0
1 11 -18 0
9 -10 16 0
-9 17 19 0
-3 5 19 0
6 8 -14 0
3 15 -19 0
2 -10 17 0
8 -12 -19 0
7 8 13 0
1 4 -5 0
-5 -10 19 0
2 9 13 0
2 -4 16 0
-5 12 15 0
-13 -16 -17 0
-5 6 -10 0
-6 19 20 0
7 16 17 0
-1 8 -14 0
3 -4 11 0
2 -5 15 0
-1 -11 -12 0
-14 17 -18 0
-3 7 -13 0
-1 6 -15 0
-2 9 -18 0
-7 10 11 0
1 3 -11 0
3 11 12 0
-3 7 17 0
-2 13 16 0
9 12 16 0
6 15 -16 0
5 6 8 0
1 -6 -15 0
6 -16 -18 0
-1 8 12 0
-11 -13 -19 0
3 14 17 0
16 -17 20 0
-4 7 15 0
-3 -5 -19 0
3 4 -16 0
-8 -11 20 0
-6 -14 19 0
6 -12 -15 0
-2 5 -12 0
-3 5 14 0
1 -6 19 0
3 -5 -8 0
-3 -4 9 0
-4 14 -17 0
-7 -13 17 0
-6 -8 10 0
2 4 20 0
4 12 19 0
-5 -11 -14 0
1 -3 14 0
-13 16 18 0
1 -13 -17 0
-4 -8 18 0
10 13 16 0
5 -14 16 0
-4 -6 13 0
-6 8 11 0
6 -10 -15 0
7 -9 12 0
-1 -8 20 0
-3 -11 19 0
-11 -14 -18 0
4 -16 18 0
-1 -13 20 0
-9 11 -20 0
